0 7 1
0 20 1
0 27 1
1 2 1
1 20 1
2 1 1
2 28 1
3 14 1
3 19 1
4 8 1
4 25 1
5 11 1
5 27 1
6 22 1
6 24 1
7 0 1
7 26 1
8 4 1
9 12 1
9 19 1
10 18 1
10 21 1
11 5 1
12 9 1
12 15 1
12 20 1
13 16 1
13 21 1
14 3 1
15 12 1
15 23 1
16 13 1
16 17 1
17 16 1
18 10 1
18 24 1
19 3 1
19 9 1
20 0 1
20 1 1
20 12 1
21 10 1
21 13 1
22 6 1
22 26 1
23 15 1
24 6 1
24 18 1
25 4 1
25 28 1
26 7 1
26 22 1
27 0 1
27 5 1
28 2 1
28 25 1
